GLPSOL--GLPK LP/MIP Solver 5.0
Parameter(s) specified in the command line:
 --lp ../modeles/20_114.lp --log 20_114.log
Reading problem data from '../modeles/20_114.lp'...
2361 rows, 4600 columns, 16020 non-zeros
2280 integer variables, all of which are binary
6987 lines were read
GLPK Integer Optimizer 5.0
2361 rows, 4600 columns, 16020 non-zeros
2280 integer variables, all of which are binary
Preprocessing...
2280 constraint coefficient(s) were reduced
2361 rows, 4580 columns, 16000 non-zeros
2280 integer variables, all of which are binary
Scaling...
 A: min|aij| =  1.231e-03  max|aij| =  4.000e+00  ratio =  3.249e+03
GM: min|aij| =  1.325e-01  max|aij| =  7.550e+00  ratio =  5.700e+01
EQ: min|aij| =  1.754e-02  max|aij| =  1.000e+00  ratio =  5.700e+01
2N: min|aij| =  1.562e-02  max|aij| =  1.757e+00  ratio =  1.125e+02
Constructing initial basis...
Size of triangular part is 2361
Solving LP relaxation...
GLPK Simplex Optimizer 5.0
2361 rows, 4580 columns, 16000 non-zeros
      0: obj =   4.000000000e+01 inf =   9.950e+01 (41)
Perturbing LP to avoid stalling [199]...
    299: obj =  -5.706915139e-01 inf =   0.000e+00 (0)
Removing LP perturbation [935]...
*   935: obj =  -4.459514170e+00 inf =   2.136e-14 (0) 1
OPTIMAL LP SOLUTION FOUND
Integer optimization begins...
Long-step dual simplex will be used
+   935: mip =     not found yet >=              -inf        (1; 0)
+   961: >>>>>  -4.459514170e+00 >=  -4.459514170e+00 < 0.1% (27; 0)
+   961: mip =  -4.459514170e+00 >=     tree is empty   0.0% (0; 53)
INTEGER OPTIMAL SOLUTION FOUND
Time used:   0.2 secs
Memory used: 7.0 Mb (7307894 bytes)
